55
1 0 6
2 0 3
2 1 7
3 0 8
3 1 2
3 2 2
4 0 10
4 1 2
4 2 9
4 3 6
5 0 6
5 1 4
5 2 6
5 3 9
5 4 4
6 0 10
6 1 5
6 2 9
6 3 2
6 4 1
6 5 5
7 0 4
7 1 9
7 2 5
7 3 4
7 4 5
7 5 2
7 6 1
8 0 3
8 1 10
8 2 9
8 3 8
8 4 1
8 5 5
8 6 6
8 7 8
9 0 6
9 1 4
9 2 1
9 3 1
9 4 9
9 5 6
9 6 5
9 7 1
9 8 6
10 0 9
10 1 5
10 2 7
10 3 3
10 4 1
10 5 8
10 6 8
10 7 7
10 8 6
10 9 5
11 0 7
11 1 3
11 2 10
11 3 4
11 4 1
11 5 8
11 6 4
11 7 6
11 8 6
11 9 4
11 10 3
12 0 2
12 1 3
12 2 9
12 3 6
12 4 8
12 5 3
12 6 5
12 7 1
12 8 4
12 9 4
12 10 2
12 11 9
13 0 8
13 1 9
13 2 3
13 3 2
13 4 6
13 5 5
13 6 7
13 7 8
13 8 1
13 9 9
13 10 3
13 11 7
13 12 4
14 0 1
14 1 2
14 2 9
14 3 5
14 4 5
14 5 9
14 6 6
14 7 6
14 8 5
14 9 4
14 10 5
14 11 10
14 12 2
14 13 4
15 0 4
15 1 10
15 2 10
15 3 6
15 4 4
15 5 4
15 6 1
15 7 7
15 8 5
15 9 2
15 10 8
15 11 7
15 12 2
15 13 3
15 14 9
16 0 3
16 1 4
16 2 7
16 3 2
16 4 9
16 5 1
16 6 4
16 7 8
16 8 6
16 9 7
16 10 3
16 11 3
16 12 1
16 13 2
16 14 1
16 15 4
17 0 5
17 1 6
17 2 1
17 3 10
17 4 5
17 5 1
17 6 3
17 7 3
17 8 9
17 9 9
17 10 1
17 11 3
17 12 8
17 13 1
17 14 10
17 15 10
17 16 6
18 0 7
18 1 6
18 2 6
18 3 6
18 4 8
18 5 5
18 6 7
18 7 2
18 8 9
18 9 3
18 10 6
18 11 5
18 12 1
18 13 2
18 14 2
18 15 6
18 16 8
18 17 7
19 0 7
19 1 5
19 2 2
19 3 7
19 4 10
19 5 3
19 6 10
19 7 3
19 8 10
19 9 9
19 10 10
19 11 5
19 12 5
19 13 4
19 14 3
19 15 4
19 16 6
19 17 2
19 18 10
20 0 8
20 1 10
20 2 8
20 3 5
20 4 4
20 5 5
20 6 2
20 7 10
20 8 5
20 9 4
20 10 5
20 11 3
20 12 5
20 13 3
20 14 2
20 15 6
20 16 10
20 17 3
20 18 7
20 19 3
21 0 7
21 1 10
21 2 8
21 3 4
21 4 8
21 5 5
21 6 8
21 7 6
21 8 4
21 9 1
21 10 6
21 11 6
21 12 9
21 13 7
21 14 2
21 15 3
21 16 3
21 17 3
21 18 2
21 19 5
21 20 5
22 0 9
22 1 8
22 2 9
22 3 8
22 4 2
22 5 4
22 6 2
22 7 2
22 8 8
22 9 7
22 10 4
22 11 9
22 12 5
22 13 7
22 14 8
22 15 4
22 16 7
22 17 1
22 18 4
22 19 2
22 20 10
22 21 9
23 0 6
23 1 8
23 2 4
23 3 5
23 4 9
23 5 7
23 6 7
23 7 2
23 8 9
23 9 8
23 10 4
23 11 2
23 12 7
23 13 8
23 14 9
23 15 10
23 16 5
23 17 8
23 18 3
23 19 3
23 20 9
23 21 1
23 22 9
24 0 10
24 1 9
24 2 9
24 3 6
24 4 7
24 5 9
24 6 7
24 7 4
24 8 6
24 9 1
24 10 3
24 11 8
24 12 8
24 13 10
24 14 4
24 15 10
24 16 9
24 17 5
24 18 5
24 19 8
24 20 9
24 21 8
24 22 6
24 23 10
25 0 6
25 1 5
25 2 10
25 3 7
25 4 4
25 5 9
25 6 1
25 7 10
25 8 7
25 9 4
25 10 8
25 11 7
25 12 4
25 13 5
25 14 6
25 15 9
25 16 8
25 17 2
25 18 9
25 19 9
25 20 10
25 21 4
25 22 7
25 23 3
25 24 1
26 0 7
26 1 4
26 2 4
26 3 4
26 4 6
26 5 3
26 6 10
26 7 2
26 8 1
26 9 9
26 10 9
26 11 1
26 12 10
26 13 8
26 14 4
26 15 4
26 16 8
26 17 9
26 18 7
26 19 7
26 20 7
26 21 10
26 22 3
26 23 1
26 24 1
26 25 2
27 0 3
27 1 2
27 2 2
27 3 3
27 4 4
27 5 7
27 6 2
27 7 10
27 8 9
27 9 10
27 10 1
27 11 7
27 12 8
27 13 8
27 14 1
27 15 8
27 16 3
27 17 5
27 18 1
27 19 1
27 20 1
27 21 5
27 22 10
27 23 2
27 24 4
27 25 5
27 26 3
28 0 1
28 1 3
28 2 2
28 3 10
28 4 7
28 5 6
28 6 7
28 7 1
28 8 7
28 9 5
28 10 2
28 11 3
28 12 9
28 13 8
28 14 8
28 15 10
28 16 6
28 17 8
28 18 3
28 19 5
28 20 1
28 21 1
28 22 2
28 23 6
28 24 3
28 25 1
28 26 3
28 27 9
29 0 4
29 1 5
29 2 9
29 3 6
29 4 1
29 5 1
29 6 5
29 7 9
29 8 6
29 9 8
29 10 2
29 11 3
29 12 1
29 13 6
29 14 4
29 15 5
29 16 4
29 17 1
29 18 5
29 19 4
29 20 7
29 21 1
29 22 4
29 23 3
29 24 5
29 25 7
29 26 10
29 27 10
29 28 8
30 0 5
30 1 5
30 2 8
30 3 8
30 4 8
30 5 8
30 6 5
30 7 3
30 8 2
30 9 10
30 10 10
30 11 2
30 12 2
30 13 9
30 14 9
30 15 6
30 16 4
30 17 1
30 18 3
30 19 5
30 20 9
30 21 4
30 22 10
30 23 3
30 24 4
30 25 3
30 26 2
30 27 6
30 28 7
30 29 5
31 0 7
31 1 8
31 2 5
31 3 7
31 4 8
31 5 4
31 6 3
31 7 5
31 8 7
31 9 4
31 10 9
31 11 7
31 12 7
31 13 7
31 14 3
31 15 9
31 16 8
31 17 6
31 18 9
31 19 5
31 20 2
31 21 3
31 22 4
31 23 6
31 24 10
31 25 9
31 26 4
31 27 6
31 28 3
31 29 2
31 30 7
32 0 1
32 1 9
32 2 2
32 3 6
32 4 3
32 5 5
32 6 3
32 7 6
32 8 3
32 9 9
32 10 5
32 11 9
32 12 1
32 13 9
32 14 7
32 15 9
32 16 8
32 17 3
32 18 8
32 19 9
32 20 5
32 21 6
32 22 6
32 23 2
32 24 9
32 25 3
32 26 6
32 27 10
32 28 4
32 29 6
32 30 4
32 31 5
33 0 2
33 1 4
33 2 6
33 3 1
33 4 10
33 5 5
33 6 8
33 7 6
33 8 2
33 9 7
33 10 6
33 11 3
33 12 4
33 13 8
33 14 1
33 15 3
33 16 7
33 17 5
33 18 1
33 19 9
33 20 4
33 21 1
33 22 7
33 23 9
33 24 6
33 25 9
33 26 1
33 27 1
33 28 4
33 29 5
33 30 9
33 31 9
33 32 2
34 0 4
34 1 6
34 2 5
34 3 4
34 4 5
34 5 3
34 6 3
34 7 9
34 8 2
34 9 2
34 10 7
34 11 5
34 12 6
34 13 6
34 14 4
34 15 5
34 16 3
34 17 2
34 18 5
34 19 5
34 20 7
34 21 2
34 22 2
34 23 6
34 24 6
34 25 5
34 26 4
34 27 4
34 28 2
34 29 8
34 30 6
34 31 9
34 32 3
34 33 4
35 0 6
35 1 10
35 2 2
35 3 8
35 4 3
35 5 8
35 6 6
35 7 1
35 8 6
35 9 5
35 10 1
35 11 5
35 12 10
35 13 7
35 14 10
35 15 6
35 16 5
35 17 1
35 18 10
35 19 3
35 20 10
35 21 8
35 22 8
35 23 2
35 24 5
35 25 1
35 26 3
35 27 4
35 28 6
35 29 2
35 30 8
35 31 9
35 32 7
35 33 3
35 34 10
36 0 8
36 1 4
36 2 2
36 3 1
36 4 8
36 5 3
36 6 2
36 7 2
36 8 8
36 9 8
36 10 1
36 11 8
36 12 6
36 13 8
36 14 5
36 15 3
36 16 5
36 17 6
36 18 2
36 19 10
36 20 5
36 21 5
36 22 3
36 23 4
36 24 6
36 25 1
36 26 10
36 27 2
36 28 10
36 29 6
36 30 2
36 31 3
36 32 7
36 33 5
36 34 7
36 35 2
37 0 5
37 1 9
37 2 1
37 3 2
37 4 10
37 5 6
37 6 3
37 7 4
37 8 5
37 9 9
37 10 4
37 11 5
37 12 7
37 13 9
37 14 8
37 15 4
37 16 5
37 17 8
37 18 2
37 19 2
37 20 9
37 21 7
37 22 5
37 23 6
37 24 1
37 25 1
37 26 6
37 27 8
37 28 7
37 29 1
37 30 9
37 31 5
37 32 6
37 33 2
37 34 7
37 35 4
37 36 4
38 0 7
38 1 6
38 2 10
38 3 10
38 4 9
38 5 9
38 6 9
38 7 4
38 8 3
38 9 2
38 10 8
38 11 2
38 12 1
38 13 6
38 14 2
38 15 5
38 16 8
38 17 3
38 18 7
38 19 2
38 20 8
38 21 4
38 22 4
38 23 10
38 24 10
38 25 1
38 26 6
38 27 2
38 28 9
38 29 3
38 30 8
38 31 8
38 32 5
38 33 4
38 34 7
38 35 1
38 36 6
38 37 8
39 0 6
39 1 4
39 2 2
39 3 1
39 4 10
39 5 1
39 6 2
39 7 8
39 8 7
39 9 5
39 10 3
39 11 5
39 12 6
39 13 6
39 14 5
39 15 8
39 16 5
39 17 3
39 18 7
39 19 10
39 20 2
39 21 10
39 22 5
39 23 10
39 24 10
39 25 6
39 26 3
39 27 10
39 28 1
39 29 3
39 30 9
39 31 6
39 32 1
39 33 8
39 34 10
39 35 3
39 36 6
39 37 5
39 38 1
40 0 10
40 1 10
40 2 2
40 3 1
40 4 8
40 5 2
40 6 4
40 7 1
40 8 10
40 9 3
40 10 4
40 11 6
40 12 2
40 13 4
40 14 8
40 15 9
40 16 6
40 17 3
40 18 8
40 19 8
40 20 2
40 21 1
40 22 9
40 23 4
40 24 7
40 25 4
40 26 1
40 27 3
40 28 2
40 29 6
40 30 7
40 31 6
40 32 3
40 33 5
40 34 1
40 35 5
40 36 10
40 37 10
40 38 2
40 39 10
41 0 3
41 1 4
41 2 7
41 3 1
41 4 10
41 5 9
41 6 2
41 7 2
41 8 10
41 9 1
41 10 2
41 11 10
41 12 1
41 13 6
41 14 9
41 15 5
41 16 6
41 17 2
41 18 4
41 19 9
41 20 2
41 21 2
41 22 4
41 23 9
41 24 8
41 25 9
41 26 3
41 27 5
41 28 6
41 29 10
41 30 9
41 31 1
41 32 10
41 33 8
41 34 5
41 35 6
41 36 8
41 37 9
41 38 4
41 39 10
41 40 3
42 0 8
42 1 7
42 2 7
42 3 4
42 4 10
42 5 5
42 6 5
42 7 10
42 8 9
42 9 8
42 10 1
42 11 8
42 12 1
42 13 1
42 14 10
42 15 2
42 16 3
42 17 1
42 18 8
42 19 7
42 20 7
42 21 10
42 22 2
42 23 7
42 24 3
42 25 7
42 26 2
42 27 4
42 28 5
42 29 5
42 30 5
42 31 9
42 32 3
42 33 1
42 34 1
42 35 7
42 36 9
42 37 8
42 38 5
42 39 2
42 40 8
42 41 9
43 0 9
43 1 8
43 2 7
43 3 2
43 4 2
43 5 4
43 6 5
43 7 7
43 8 7
43 9 2
43 10 4
43 11 8
43 12 7
43 13 6
43 14 3
43 15 3
43 16 8
43 17 7
43 18 7
43 19 6
43 20 8
43 21 9
43 22 6
43 23 8
43 24 5
43 25 3
43 26 9
43 27 4
43 28 1
43 29 7
43 30 3
43 31 10
43 32 1
43 33 5
43 34 1
43 35 3
43 36 5
43 37 9
43 38 9
43 39 4
43 40 10
43 41 9
43 42 6
44 0 5
44 1 4
44 2 5
44 3 1
44 4 6
44 5 6
44 6 3
44 7 8
44 8 1
44 9 8
44 10 9
44 11 5
44 12 4
44 13 10
44 14 6
44 15 10
44 16 4
44 17 1
44 18 9
44 19 1
44 20 10
44 21 4
44 22 7
44 23 5
44 24 3
44 25 4
44 26 9
44 27 10
44 28 1
44 29 5
44 30 9
44 31 6
44 32 2
44 33 9
44 34 9
44 35 10
44 36 10
44 37 1
44 38 4
44 39 1
44 40 5
44 41 7
44 42 2
44 43 4
45 0 3
45 1 2
45 2 3
45 3 4
45 4 5
45 5 10
45 6 1
45 7 3
45 8 7
45 9 5
45 10 1
45 11 10
45 12 4
45 13 7
45 14 7
45 15 2
45 16 3
45 17 10
45 18 5
45 19 2
45 20 3
45 21 4
45 22 2
45 23 9
45 24 5
45 25 10
45 26 10
45 27 7
45 28 1
45 29 7
45 30 3
45 31 7
45 32 6
45 33 8
45 34 5
45 35 3
45 36 10
45 37 6
45 38 5
45 39 5
45 40 10
45 41 6
45 42 1
45 43 2
45 44 5
46 0 10
46 1 4
46 2 2
46 3 6
46 4 4
46 5 5
46 6 4
46 7 8
46 8 4
46 9 1
46 10 6
46 11 7
46 12 9
46 13 1
46 14 8
46 15 6
46 16 8
46 17 8
46 18 9
46 19 3
46 20 1
46 21 7
46 22 2
46 23 5
46 24 1
46 25 6
46 26 1
46 27 1
46 28 1
46 29 4
46 30 9
46 31 1
46 32 4
46 33 4
46 34 10
46 35 10
46 36 10
46 37 2
46 38 3
46 39 8
46 40 4
46 41 3
46 42 8
46 43 10
46 44 9
46 45 10
47 0 9
47 1 8
47 2 10
47 3 6
47 4 6
47 5 4
47 6 9
47 7 10
47 8 1
47 9 3
47 10 10
47 11 1
47 12 2
47 13 4
47 14 9
47 15 7
47 16 7
47 17 7
47 18 1
47 19 7
47 20 4
47 21 6
47 22 5
47 23 8
47 24 10
47 25 3
47 26 4
47 27 1
47 28 8
47 29 8
47 30 10
47 31 1
47 32 10
47 33 10
47 34 7
47 35 8
47 36 7
47 37 4
47 38 2
47 39 7
47 40 3
47 41 3
47 42 6
47 43 3
47 44 2
47 45 10
47 46 1
48 0 2
48 1 7
48 2 7
48 3 2
48 4 4
48 5 5
48 6 8
48 7 3
48 8 4
48 9 1
48 10 3
48 11 4
48 12 3
48 13 7
48 14 6
48 15 4
48 16 3
48 17 5
48 18 2
48 19 6
48 20 5
48 21 8
48 22 10
48 23 4
48 24 7
48 25 2
48 26 6
48 27 1
48 28 10
48 29 5
48 30 4
48 31 10
48 32 7
48 33 1
48 34 10
48 35 2
48 36 7
48 37 6
48 38 3
48 39 7
48 40 10
48 41 9
48 42 3
48 43 7
48 44 3
48 45 6
48 46 10
48 47 4
49 0 3
49 1 5
49 2 1
49 3 8
49 4 2
49 5 1
49 6 4
49 7 7
49 8 3
49 9 8
49 10 10
49 11 2
49 12 8
49 13 8
49 14 4
49 15 5
49 16 6
49 17 1
49 18 5
49 19 8
49 20 2
49 21 7
49 22 8
49 23 7
49 24 1
49 25 2
49 26 6
49 27 8
49 28 6
49 29 9
49 30 1
49 31 7
49 32 2
49 33 1
49 34 4
49 35 5
49 36 5
49 37 6
49 38 5
49 39 8
49 40 10
49 41 1
49 42 9
49 43 3
49 44 5
49 45 5
49 46 3
49 47 4
49 48 10
50 0 10
50 1 7
50 2 3
50 3 10
50 4 2
50 5 4
50 6 6
50 7 3
50 8 9
50 9 2
50 10 5
50 11 6
50 12 2
50 13 8
50 14 6
50 15 3
50 16 6
50 17 9
50 18 2
50 19 10
50 20 3
50 21 3
50 22 6
50 23 8
50 24 7
50 25 7
50 26 7
50 27 8
50 28 3
50 29 9
50 30 9
50 31 4
50 32 5
50 33 1
50 34 5
50 35 8
50 36 8
50 37 5
50 38 9
50 39 10
50 40 7
50 41 9
50 42 5
50 43 9
50 44 7
50 45 3
50 46 8
50 47 10
50 48 9
50 49 5
51 0 10
51 1 7
51 2 5
51 3 6
51 4 10
51 5 3
51 6 10
51 7 7
51 8 2
51 9 6
51 10 3
51 11 2
51 12 8
51 13 10
51 14 8
51 15 6
51 16 5
51 17 1
51 18 5
51 19 1
51 20 5
51 21 1
51 22 6
51 23 10
51 24 9
51 25 3
51 26 10
51 27 1
51 28 3
51 29 9
51 30 9
51 31 7
51 32 6
51 33 6
51 34 4
51 35 5
51 36 1
51 37 10
51 38 4
51 39 5
51 40 2
51 41 4
51 42 8
51 43 5
51 44 5
51 45 7
51 46 10
51 47 2
51 48 9
51 49 5
51 50 10
52 0 1
52 1 1
52 2 5
52 3 9
52 4 6
52 5 1
52 6 5
52 7 8
52 8 5
52 9 6
52 10 8
52 11 6
52 12 4
52 13 4
52 14 8
52 15 1
52 16 2
52 17 4
52 18 1
52 19 7
52 20 10
52 21 9
52 22 2
52 23 9
52 24 9
52 25 2
52 26 7
52 27 7
52 28 2
52 29 8
52 30 5
52 31 9
52 32 1
52 33 7
52 34 10
52 35 5
52 36 8
52 37 10
52 38 3
52 39 5
52 40 10
52 41 8
52 42 3
52 43 9
52 44 4
52 45 3
52 46 5
52 47 1
52 48 6
52 49 1
52 50 1
52 51 4
53 0 7
53 1 2
53 2 7
53 3 6
53 4 4
53 5 1
53 6 7
53 7 7
53 8 1
53 9 2
53 10 1
53 11 6
53 12 9
53 13 6
53 14 7
53 15 6
53 16 7
53 17 4
53 18 9
53 19 9
53 20 5
53 21 8
53 22 5
53 23 2
53 24 2
53 25 5
53 26 1
53 27 7
53 28 3
53 29 10
53 30 6
53 31 4
53 32 7
53 33 3
53 34 6
53 35 5
53 36 5
53 37 4
53 38 4
53 39 8
53 40 7
53 41 2
53 42 4
53 43 8
53 44 6
53 45 9
53 46 9
53 47 7
53 48 6
53 49 10
53 50 10
53 51 6
53 52 6
54 0 5
54 1 7
54 2 2
54 3 4
54 4 3
54 5 10
54 6 10
54 7 5
54 8 8
54 9 7
54 10 3
54 11 7
54 12 4
54 13 5
54 14 5
54 15 3
54 16 10
54 17 4
54 18 2
54 19 6
54 20 7
54 21 5
54 22 1
54 23 4
54 24 10
54 25 5
54 26 9
54 27 2
54 28 3
54 29 7
54 30 1
54 31 1
54 32 10
54 33 8
54 34 6
54 35 8
54 36 10
54 37 7
54 38 6
54 39 4
54 40 2
54 41 10
54 42 2
54 43 9
54 44 2
54 45 4
54 46 8
54 47 8
54 48 6
54 49 4
54 50 5
54 51 2
54 52 2
54 53 9
